example/job_shop.fzn
array [1..2] of int: X_INTRODUCED_8_ = [1,-1];
var 0..7: X_INTRODUCED_1_;
var 2..9: X_INTRODUCED_2_;
var 0..7: X_INTRODUCED_3_;
var 3..10: X_INTRODUCED_4_;
var 7..14: end:: output_var;
var bool: X_INTRODUCED_10_ ::var_is_introduced :: is_defined_var;
var bool: X_INTRODUCED_12_ ::var_is_introduced :: is_defined_var;
var bool: X_INTRODUCED_14_ ::var_is_introduced :: is_defined_var;
var bool: X_INTRODUCED_15_ ::var_is_introduced :: is_defined_var;
array [1..4] of var int: X_INTRODUCED_0_:: output_array([1..4]) = [X_INTRODUCED_1_,X_INTRODUCED_2_,X_INTRODUCED_3_,X_INTRODUCED_4_];
constraint int_lin_le(X_INTRODUCED_8_,[X_INTRODUCED_1_,X_INTRODUCED_2_],-2);
constraint int_lin_le(X_INTRODUCED_8_,[X_INTRODUCED_2_,end],-5);
constraint bool_clause([X_INTRODUCED_10_,X_INTRODUCED_12_],[]);
constraint int_lin_le(X_INTRODUCED_8_,[X_INTRODUCED_3_,X_INTRODUCED_4_],-3);
constraint int_lin_le(X_INTRODUCED_8_,[X_INTRODUCED_4_,end],-4);
constraint bool_clause([X_INTRODUCED_14_,X_INTRODUCED_15_],[]);
constraint int_lin_le_reif(X_INTRODUCED_8_,[X_INTRODUCED_1_,X_INTRODUCED_3_],-2,X_INTRODUCED_10_):: defines_var(X_INTRODUCED_10_);
constraint int_lin_le_reif(X_INTRODUCED_8_,[X_INTRODUCED_3_,X_INTRODUCED_1_],-3,X_INTRODUCED_12_):: defines_var(X_INTRODUCED_12_);
constraint int_lin_le_reif(X_INTRODUCED_8_,[X_INTRODUCED_2_,X_INTRODUCED_4_],-5,X_INTRODUCED_14_):: defines_var(X_INTRODUCED_14_);
constraint int_lin_le_reif(X_INTRODUCED_8_,[X_INTRODUCED_4_,X_INTRODUCED_2_],-4,X_INTRODUCED_15_):: defines_var(X_INTRODUCED_15_);
solve  minimize end;